42622 0
238 239 245 247 246 216 217 215 214 213 212 211 210 209 205 206 207 208 202 204 203 198 199 200 201 165 153 151 150 149 152 147 148 141 138 140 139 137 114 115 116 117 108 109 173 174 175 172 170 171 169 180 181 179 182 183 185 184 197 196 195 194 193 192 191 190 189 227 228 229 230 231 533 532 531 530 529 528 527 512 513 511 510 509 515 516 514 517 520 521 523 522 526 525 492 491 490 489 488 534 535 487 486 485 484 536 537 539 538 540 176 177 178 187 188 186 226 225 219 218 220 221 222 224 223 232 233 234 235 236 237 240 243 244 242 241 248 249 250 251 252 253 254 255 256 257 260 259 258 262 263 264 265 266 298 299 300 261 290 289 288 333 332 331 330 340 341 343 342 365 364 346 345 344 339 338 337 336 335 334 283 284 285 282 286 287 281 280 279 278 277 276 273 274 275 291 292 267 271 272 269 268 270 293 294 295 296 297 319 321 320 317 318 305 306 304 303 307 504 503 502 519 518 495 494 524 493 482 481 483 480 479 477 476 478 475 566 565 563 564 562 561 560 549 548 567 21 11 55 56 83 82 57 58 59 81 80 79 62 63 61 60 64 76 75 74 73 72 71 123 122 121 120 119 118 106 105 104 103 547 546 545 544 543 541 542 107 110 111 112 113 161 160 162 168 163 167 166 164 154 155 156 159 157 158 145 146 143 142 144 136 135 134 133 132 131 130 129 128 127 126 125 124 70 69 68 67 66 65 77 78 88 89 44 43 39 42 40 41 557 556 552 553 554 91 555 45 46 47 48 49 54 53 52 50 51 84 85 86 87 90 92 93 94 97 95 96 98 102 99 100 101 551 550 559 558 34 33 35 38 37 36 31 32 30 29 28 27 26 25 24 22 23 12 13 14 15 16 10 9 3 2 4 1 571 572 573 0 5 6 7 8 17 18 19 20 568 569 570 474 473 472 471 470 469 468 467 466 465 464 496 497 498 501 500 499 452 461 462 463 460 459 458 457 456 455 454 453 440 441 449 448 446 447 442 443 444 445 439 450 451 431 437 438 436 435 434 433 432 430 429 428 427 426 416 415 414 413 357 358 360 359 361 363 362 347 348 349 350 351 352 353 354 355 356 412 411 410 418 417 419 420 421 422 423 424 425 382 386 387 385 383 384 409 403 402 401 399 400 406 404 405 408 407 397 398 370 369 368 367 366 329 328 327 326 325 324 323 322 373 372 371 396 395 394 393 392 391 388 389 390 381 380 379 378 377 376 375 374 315 314 316 313 312 311 310 309 308 505 506 507 508 302 301
